HEA1_POSCAR                             
   1.0000000000000000     
    12.3149999999999995    0.0000000000000000    0.0000000000000000
     0.0000000000000000   12.3149999999999995    0.0000000000000000
     0.0000000000000000    0.0000000000000000   12.3149999999999995
   W    Ti   Ta   Cr
    32    32    32    32
Direct
  0.5013754965329922  0.2501591318854551  0.5056995069570441
  0.1273294933672273  0.3747848277275886  0.3776028755217507
  0.7512374188706815  0.7486685253426475  0.9988667734652928
  0.3748266045490634  0.1239247988407790  0.6247883203924131
  0.2459654956935658  0.2520905182401302  0.2485309556285400
  0.6239932407036861  0.6274389336543580  0.8773166771791345
  0.9922837000740206  0.0011796180341786  0.2567046565360157
  0.7518851034754586  0.5001948514697581  0.2481314187857261
  0.1255601237717565  0.1209631497953246  0.3727578833257407
  0.4979770167780895  0.5016458757890809  0.2506639692578685
  0.3800773513618323  0.3734776276722865  0.8786959845152057
  0.5046354231423930  0.0023662307410544  0.7429688042463851
  0.6237626011227132  0.6228734305934377  0.3748512560468694
  0.8663770922370166  0.3661259631190461  0.1245992949800910
  0.8739794456972122  0.3728086047474115  0.8764493370990620
  0.2503401181548239  0.4928677596393115  0.5045347377564882
  0.3761073026854046  0.6287613140359454  0.1228242795827203
  0.4990301553694481  0.5002297954120699  0.9991434725361792
  0.8764978111342964  0.6287949069731682  0.1201145231717727
  0.8763948367446925  0.6266453305079980  0.3786470367712581
  0.9952834727305676  0.0036260306551056  0.7413045066703433
  0.2486135611535289  0.4936779294958551  0.7526615150064395
  0.5064481449314786  0.7490651237606080  0.7464289456344271
  0.8694331235011202  0.3708413588213229  0.3717496359750130
  0.2460968281464266  0.0031922021896792  0.7492194207507610
  0.5083455939284846  0.7540770666635042  0.5009955959466260
  0.2460766185610077  0.0060055688950060  0.5016474709079988
  0.1289245509151528  0.6331576668845399  0.1210193129478414
  0.9913892344991487  0.7584407007119710  0.4993938911620128
  0.8745966146382326  0.1195105713182918  0.8812629854070173
  0.0040883298445130  0.4934101014753252  0.7523752928383760
  0.3791414303119165  0.3712347642545075  0.3717099475146949
  0.1223040254323873  0.1128367387671465  0.8807100546660449
  0.6261822329849582  0.3643353501098428  0.8891574663576750
  0.8864447815600527  0.6340921759955309  0.8704654908232082
  0.3874937803105996  0.3650467443987267  0.1255200501611574
  0.9985304075392577  0.2492896794312070  0.2496826266799334
  0.0060996011554863  0.4938249691717605  0.9998748829765488
  0.8680896121454952  0.1241671439181193  0.1194490756247297
  0.9945338330371226  0.7506593498614631  0.2498923726364214
  0.7463379837223704  0.7560006295078506  0.7371433083663737
  0.7558380964754863  0.4998075697383020  0.9977978212436289
  0.5046863388355289  0.7527487381611515  0.2536705799998418
  0.8850966001045417  0.6331216726877427  0.6340645666793044
  0.7466879116344798  0.7595682947665950  0.5035032409182355
  0.2472180042676766  0.2518994763526721  0.5063644453661827
  0.6233000491142020  0.6261378717423813  0.1217339329808940
  0.2478092594802505  0.4962287969943883  0.2436107561963207
  0.1254274011817035  0.6346426150952834  0.8747004854023761
  0.6199412863186489  0.1310881502974019  0.3622248596839623
  0.5030734988168927  0.2518777571828143  0.7430042733546022
  0.2413564746619986  0.2607932657489050 -0.0007147113103604
  0.1314127691083417  0.6328251552405003  0.3803004213224412
  0.5117024287618612  0.9981837459306787  0.5023104909192277
  0.2442171667624287  0.4931589434761835  0.0020613036659860
  0.6237075656341636  0.3647943416868293  0.3630863883953478
  0.7547261761217480  0.9971088775146124  0.2643432375817550
  0.3665048259051474  0.6312040897744672  0.6263765806378900
  0.9885287917615847  0.0035741863336940  0.5019731941360188
  0.6236536406657212  0.3655085833836337  0.1252822679448093
  0.1235555227266132  0.8703305001224466  0.6284302520709405
  0.8785955114273932  0.8843722831633576  0.1136999892961883
  0.0058346483234288  0.2575666831576252 -0.0004608543151360
  0.7504200507918435  0.0013775379827525  0.7351393352986422
  0.3696319699569619  0.6303851622322537  0.8760370303264843
  0.3724932461425020  0.8735299198756431  0.8799948979870447
  0.9970734677379950  0.2451594983808884  0.5036099989203525
  0.7499285836857693  0.2449555581583971  0.5027024205971364
  0.7499358735620834  0.4981638431534722  0.7471663518747064
  0.1265992493373959  0.1150138342310395  0.1215920972406931
  0.6240767278189437  0.8795670767165605  0.8795705539811958
  0.6254843135523704  0.1268102202110714  0.1259817722432064
  0.3710594625424009  0.8765258893960514  0.3722653041152674
  0.7481272043776224  0.4981082922870126  0.5054854432364748
  0.7504685485329304  0.9990752081549418  0.4996960232597036
  0.1238103691612640  0.8703045366122709  0.8757870036463815
  0.3722092700369724  0.8768275061048294  0.1241874090355867
  0.5016870695557109  0.4977976806085099  0.5061647039467840
  0.0005872224889229  0.2500777398626975  0.7468006130520062
  0.3792546146822993  0.1229279564246372  0.3683276052064013
  0.1270841068221073  0.6340460808756520  0.6297312521277499
  0.6219216276810221  0.8824671850057744  0.1209236630404875
  0.2450190888628151  0.2535141826451637  0.7480864239524728
  0.5022389120676807  0.4953998971737035  0.7446544208446992
  0.8785238132896648  0.8756786394427700  0.8757311093826665
  0.7515495464372249  0.2468798454957708  0.7423447444660132
  0.3761687279499387  0.1214826548899624  0.8829375874910659
  0.1291482548178603  0.8718017332442182  0.3747738006458709
  0.3810110105329145  0.1208812897944431  0.1256839190745758
  0.9991829046355379  0.4952821567001504  0.5041898196642787
  0.0045808513885542  0.4971467979177571  0.2461781615173964
  0.3677811738092932  0.6300190778792683  0.3770793007343708
  0.7511753898098065  0.7580503476388575  0.2577659676665211
  0.1273552499616596  0.8751231454101162  0.1203989693831350
  0.6262409195344745  0.1250426879846867  0.8848690431453412
  0.3677208450435699  0.8701891312920192  0.6260153460574497
  0.4987485210599160  0.2482951320066190  0.9990447888600947
  0.4991840113239839  0.2470062995286506  0.2495819800133390
  0.8688794311937621  0.1269709278924456  0.3677197515186497
  0.5002310951540809  0.9995219563630819  0.0009158158001084
  0.6240258751013924  0.1248016100882067  0.6215473794119829
  0.9959836355984196  0.7570441101277808  0.7473087722125299
  0.6239971339475848  0.3726365061032281  0.6217559234521953
  0.2500462574065632  0.9978941642199300  0.0012250270178540
  0.9975883606403368  0.0014595494084353  0.9966024747747317
  0.7561192177162921  0.2450631379811782  0.2515606201507230
  0.1255145145645343  0.3797243944890790  0.6282171572854180
  0.0031778024219868  0.7465819348842356  0.0032089148049582
  0.8813309213731481  0.8746173569736104  0.6278910658313082
  0.6190950274591860  0.8808235719102078  0.3737120673852020
  0.2489780976828530  0.9990268709540647  0.2499509044173162
  0.5050226058397745  0.9937918599078996  0.2557587103754002
  0.7561716344361459  0.2498820355864391  0.0004500067650103
  0.6209944365468401  0.8756921804985578  0.6243501007086568
  0.7510150964888990  0.0031459508196262  0.9971220470219299
  0.2500626594671221  0.7504119297560227  0.7529753697800711
  0.2496680918181635  0.7453673185311924  0.0027737843805895
  0.2487640316929038  0.7510384930497166  0.5003389951484883
  0.2497044072578594  0.7463373389513940  0.2467036344025723
  0.6220800283397365  0.6272743596817520  0.6256737721550618
  0.1262378003123151  0.3805499556202545  0.8704788678428167
  0.8770058543340268  0.3761286656259796  0.6258083302554296
  0.8746966715729293  0.1232929079294211  0.6245196537500546
  0.4973433418879605  0.7491079391839169  0.0019892801982655
  0.3729760746374128  0.3778350629243757  0.6238495647362424
  0.8770445273409675  0.8792188263677351  0.3765198041325065
  0.1229425644155428  0.1202542680784433  0.6280935644979165
  0.1288570437534255  0.3705564117130724  0.1275606427710822

  0.00000000E+00  0.00000000E+00  0.00000000E+00
  0.00000000E+00  0.00000000E+00  0.00000000E+00
  0.00000000E+00  0.00000000E+00  0.00000000E+00
  0.00000000E+00  0.00000000E+00  0.00000000E+00
  0.00000000E+00  0.00000000E+00  0.00000000E+00
  0.00000000E+00  0.00000000E+00  0.00000000E+00
  0.00000000E+00  0.00000000E+00  0.00000000E+00
  0.00000000E+00  0.00000000E+00  0.00000000E+00
  0.00000000E+00  0.00000000E+00  0.00000000E+00
  0.00000000E+00  0.00000000E+00  0.00000000E+00
  0.00000000E+00  0.00000000E+00  0.00000000E+00
  0.00000000E+00  0.00000000E+00  0.00000000E+00
  0.00000000E+00  0.00000000E+00  0.00000000E+00
  0.00000000E+00  0.00000000E+00  0.00000000E+00
  0.00000000E+00  0.00000000E+00  0.00000000E+00
  0.00000000E+00  0.00000000E+00  0.00000000E+00
  0.00000000E+00  0.00000000E+00  0.00000000E+00
  0.00000000E+00  0.00000000E+00  0.00000000E+00
  0.00000000E+00  0.00000000E+00  0.00000000E+00
  0.00000000E+00  0.00000000E+00  0.00000000E+00
  0.00000000E+00  0.00000000E+00  0.00000000E+00
  0.00000000E+00  0.00000000E+00  0.00000000E+00
  0.00000000E+00  0.00000000E+00  0.00000000E+00
  0.00000000E+00  0.00000000E+00  0.00000000E+00
  0.00000000E+00  0.00000000E+00  0.00000000E+00
  0.00000000E+00  0.00000000E+00  0.00000000E+00
  0.00000000E+00  0.00000000E+00  0.00000000E+00
  0.00000000E+00  0.00000000E+00  0.00000000E+00
  0.00000000E+00  0.00000000E+00  0.00000000E+00
  0.00000000E+00  0.00000000E+00  0.00000000E+00
  0.00000000E+00  0.00000000E+00  0.00000000E+00
  0.00000000E+00  0.00000000E+00  0.00000000E+00
  0.00000000E+00  0.00000000E+00  0.00000000E+00
  0.00000000E+00  0.00000000E+00  0.00000000E+00
  0.00000000E+00  0.00000000E+00  0.00000000E+00
  0.00000000E+00  0.00000000E+00  0.00000000E+00
  0.00000000E+00  0.00000000E+00  0.00000000E+00
  0.00000000E+00  0.00000000E+00  0.00000000E+00
  0.00000000E+00  0.00000000E+00  0.00000000E+00
  0.00000000E+00  0.00000000E+00  0.00000000E+00
  0.00000000E+00  0.00000000E+00  0.00000000E+00
  0.00000000E+00  0.00000000E+00  0.00000000E+00
  0.00000000E+00  0.00000000E+00  0.00000000E+00
  0.00000000E+00  0.00000000E+00  0.00000000E+00
  0.00000000E+00  0.00000000E+00  0.00000000E+00
  0.00000000E+00  0.00000000E+00  0.00000000E+00
  0.00000000E+00  0.00000000E+00  0.00000000E+00
  0.00000000E+00  0.00000000E+00  0.00000000E+00
  0.00000000E+00  0.00000000E+00  0.00000000E+00
  0.00000000E+00  0.00000000E+00  0.00000000E+00
  0.00000000E+00  0.00000000E+00  0.00000000E+00
  0.00000000E+00  0.00000000E+00  0.00000000E+00
  0.00000000E+00  0.00000000E+00  0.00000000E+00
  0.00000000E+00  0.00000000E+00  0.00000000E+00
  0.00000000E+00  0.00000000E+00  0.00000000E+00
  0.00000000E+00  0.00000000E+00  0.00000000E+00
  0.00000000E+00  0.00000000E+00  0.00000000E+00
  0.00000000E+00  0.00000000E+00  0.00000000E+00
  0.00000000E+00  0.00000000E+00  0.00000000E+00
  0.00000000E+00  0.00000000E+00  0.00000000E+00
  0.00000000E+00  0.00000000E+00  0.00000000E+00
  0.00000000E+00  0.00000000E+00  0.00000000E+00
  0.00000000E+00  0.00000000E+00  0.00000000E+00
  0.00000000E+00  0.00000000E+00  0.00000000E+00
  0.00000000E+00  0.00000000E+00  0.00000000E+00
  0.00000000E+00  0.00000000E+00  0.00000000E+00
  0.00000000E+00  0.00000000E+00  0.00000000E+00
  0.00000000E+00  0.00000000E+00  0.00000000E+00
  0.00000000E+00  0.00000000E+00  0.00000000E+00
  0.00000000E+00  0.00000000E+00  0.00000000E+00
  0.00000000E+00  0.00000000E+00  0.00000000E+00
  0.00000000E+00  0.00000000E+00  0.00000000E+00
  0.00000000E+00  0.00000000E+00  0.00000000E+00
  0.00000000E+00  0.00000000E+00  0.00000000E+00
  0.00000000E+00  0.00000000E+00  0.00000000E+00
  0.00000000E+00  0.00000000E+00  0.00000000E+00
  0.00000000E+00  0.00000000E+00  0.00000000E+00
  0.00000000E+00  0.00000000E+00  0.00000000E+00
  0.00000000E+00  0.00000000E+00  0.00000000E+00
  0.00000000E+00  0.00000000E+00  0.00000000E+00
  0.00000000E+00  0.00000000E+00  0.00000000E+00
  0.00000000E+00  0.00000000E+00  0.00000000E+00
  0.00000000E+00  0.00000000E+00  0.00000000E+00
  0.00000000E+00  0.00000000E+00  0.00000000E+00
  0.00000000E+00  0.00000000E+00  0.00000000E+00
  0.00000000E+00  0.00000000E+00  0.00000000E+00
  0.00000000E+00  0.00000000E+00  0.00000000E+00
  0.00000000E+00  0.00000000E+00  0.00000000E+00
  0.00000000E+00  0.00000000E+00  0.00000000E+00
  0.00000000E+00  0.00000000E+00  0.00000000E+00
  0.00000000E+00  0.00000000E+00  0.00000000E+00
  0.00000000E+00  0.00000000E+00  0.00000000E+00
  0.00000000E+00  0.00000000E+00  0.00000000E+00
  0.00000000E+00  0.00000000E+00  0.00000000E+00
  0.00000000E+00  0.00000000E+00  0.00000000E+00
  0.00000000E+00  0.00000000E+00  0.00000000E+00
  0.00000000E+00  0.00000000E+00  0.00000000E+00
  0.00000000E+00  0.00000000E+00  0.00000000E+00
  0.00000000E+00  0.00000000E+00  0.00000000E+00
  0.00000000E+00  0.00000000E+00  0.00000000E+00
  0.00000000E+00  0.00000000E+00  0.00000000E+00
  0.00000000E+00  0.00000000E+00  0.00000000E+00
  0.00000000E+00  0.00000000E+00  0.00000000E+00
  0.00000000E+00  0.00000000E+00  0.00000000E+00
  0.00000000E+00  0.00000000E+00  0.00000000E+00
  0.00000000E+00  0.00000000E+00  0.00000000E+00
  0.00000000E+00  0.00000000E+00  0.00000000E+00
  0.00000000E+00  0.00000000E+00  0.00000000E+00
  0.00000000E+00  0.00000000E+00  0.00000000E+00
  0.00000000E+00  0.00000000E+00  0.00000000E+00
  0.00000000E+00  0.00000000E+00  0.00000000E+00
  0.00000000E+00  0.00000000E+00  0.00000000E+00
  0.00000000E+00  0.00000000E+00  0.00000000E+00
  0.00000000E+00  0.00000000E+00  0.00000000E+00
  0.00000000E+00  0.00000000E+00  0.00000000E+00
  0.00000000E+00  0.00000000E+00  0.00000000E+00
  0.00000000E+00  0.00000000E+00  0.00000000E+00
  0.00000000E+00  0.00000000E+00  0.00000000E+00
  0.00000000E+00  0.00000000E+00  0.00000000E+00
  0.00000000E+00  0.00000000E+00  0.00000000E+00
  0.00000000E+00  0.00000000E+00  0.00000000E+00
  0.00000000E+00  0.00000000E+00  0.00000000E+00
  0.00000000E+00  0.00000000E+00  0.00000000E+00
  0.00000000E+00  0.00000000E+00  0.00000000E+00
  0.00000000E+00  0.00000000E+00  0.00000000E+00
  0.00000000E+00  0.00000000E+00  0.00000000E+00
  0.00000000E+00  0.00000000E+00  0.00000000E+00
  0.00000000E+00  0.00000000E+00  0.00000000E+00
